NAME : TW_40_seed_None_id_8
TYPE : CVRPTW
DIMENSION : 11
EDGE_WEIGHT_TYPE : EUC_2D
CAPACITY : 25
SERVICE_TIME : 100
LATE_COEFF : 0
NODE_COORD_SECTION
1	295	3
2	239	167
3	148	934
4	215	399
5	625	732
6	833	80
7	754	948
8	488	186
9	202	13
10	708	277
11	234	934
DEMAND_SECTION
1	0
2	2
3	2
4	6
5	4
6	10
7	4
8	8
9	1
10	6
11	9
TIME_WINDOW_SECTION
1	0	10000
2	3790	5851
3	25	2003
4	2150	4197
5	6870	8897
6	3447	5450
7	1736	3814
8	0	1656
9	1064	2911
10	2801	4817
11	1620	3655
DEPOT_SECTION
1
-1
EOF
